
<<< setup


<<< generate

CPXPARAM_Simplex_Tolerances_Optimality           0.001
CPXPARAM_Simplex_Tolerances_Feasibility          0.001
CPXPARAM_TimeLimit                               3600
CPXPARAM_Threads                                 8
CPXPARAM_MIP_Tolerances_AbsMIPGap                0.001
CPXPARAM_MIP_Tolerances_MIPGap                   0.001
CPXPARAM_MIP_Tolerances_Integrality              0.001
CPXPARAM_MIP_Display                             4
CPXPARAM_MIP_PolishAfter_Solutions               1
Tried aggregator 1 time.
MIQCP Presolve eliminated 2 rows and 2 columns.
Reduced MIQCP has 133 rows, 387 columns, and 4489 nonzeros.
Reduced MIQCP has 0 binaries, 64 generals, 0 SOSs, and 0 indicators.
Reduced MIQCP has 66 quadratic constraints.
Presolve time = 0.00 sec. (2.02 ticks)
MIP emphasis: balance optimality and feasibility.
MIP search method: dynamic search.
Parallel mode: deterministic, using up to 8 threads.
Tried aggregator 1 time.
LP Presolve eliminated 132 rows and 386 columns.
Aggregator did 1 substitutions.
All rows and columns eliminated.
Presolve time = 0.00 sec. (0.26 ticks)
Initializing dual steep norms . . .
Root relaxation solution time = 0.00 sec. (0.41 ticks)

        Nodes                                         Cuts/
   Node  Left     Objective  IInf  Best Integer    Best Bound    ItCnt     Gap

      0     0      260.8282     0                                    0         
      0     0      260.8282     1                     Cone: 2        1         
      0     0      260.8282     2                     Cone: 4        2         
      0     0      260.8282     3                     Cone: 6        3         
      0     0      260.8282     3                     Cone: 8        4         
      0     0      260.8282     4                    Cone: 10        5         
      0     0      260.8282     5                    Cone: 12        6         
      0     0      260.8282     5                    Cone: 61       42         
      0     0      260.8282    27                   Cone: 158       75         
      0     0      260.8282    55                   Cone: 257      127         
      0     0      260.8282    64                   Cone: 356      182         
      0     0      260.8282    64                   Cone: 455      238         
      0     0      260.8282    64                   Cone: 554      283         
      0     0      262.1723    64                   Cone: 653      323         
      0     0      263.5670    64                   Cone: 752      352         
      0     0      264.7894    64                   Cone: 853      381         
      0     0      265.3282    64                   Cone: 956      411         
      0     0      265.5924    64                  Cone: 1059      440         
      0     0      265.7168    64                  Cone: 1163      461         
      0     0      265.7822    62                  Cone: 1269      480         
      0     0      265.8199    64                  Cone: 1377      497         
      0     0      265.8465    64                  Cone: 1487      512         
      0     0      265.8665    63                  Cone: 1599      529         
      0     0      266.5035    64                    266.5035      543         
*     0+    0                          289.5196      266.5035             7.95%
Found incumbent of value 289.519584 after 0.14 sec. (76.09 ticks)

Starting condition for polishing reached (PolishAfterIntSol).
Starting solution polishing.

      0     2      266.5035    64      289.5196      266.5035      557    7.95%
Elapsed time = 0.14 sec. (103.91 ticks, tree = 0.01 MB, solutions = 1)
*     1+    1                          270.8348      266.5035             1.60%
                                                    Cone: 256                  
Found incumbent of value 270.834781 after 0.25 sec. (180.78 ticks)
*     1+    1                          266.7728      266.5035             0.10%
Found incumbent of value 266.772791 after 0.39 sec. (579.28 ticks)
*     1+    1                          266.7720      266.5035             0.10%
Found incumbent of value 266.772008 after 0.59 sec. (832.18 ticks)
*     1+    1                          266.5955      266.5035             0.03%
Found incumbent of value 266.595506 after 0.94 sec. (1962.60 ticks)
*     1+    1                          266.5319      266.5035             0.01%
Found incumbent of value 266.531943 after 1.78 sec. (4024.06 ticks)

Root node processing (before b&c):
  Real time             =    0.14 sec. (76.12 ticks)
Parallel b&c, 8 threads:
  Real time             =    1.66 sec. (3981.09 ticks)
  Sync time (average)   =    0.61 sec.
  Wait time (average)   =    0.00 sec.
                          ------------
Total (root+branch&cut) =    1.80 sec. (4057.21 ticks)

<<< solve


OBJECTIVE: 266.5319
X*: [15 -3 10 1 0 -1 -1 -1 -1 0 1 1 -1 0 0 -1 -1 1 -1 0 0 0 -1 0 -1 1 -1 0 -1 0
     -1 0] Z*: [-1 0 -1 0 -1 0 -1 0 -1 0 -1 0 -1 0 -1 0 -1 0 -1 0 -1 0 -1 0 -1 0 -1 0 -1 0
     -1 0]
f*:266.531942848

<<< post process


<<< done

